Route #1: 96 59 93 85 91 100 98 37 92 97 95 94
Route #2: 13 87 42 43 14 38 44 86 16 61 99 6
Route #3: 53 58 2 57 15 41 22 74 72 73 21 40
Route #4: 4 56 75 23 67 39 25 55 54 26
Route #5: 28 76 77 3 79 78 34 29 24 80 68 12
Route #6: 69 1 70 30 20 66 65 71 35 9 51 81 33 50
Route #7: 88 62 11 19 49 64 63 90 32 10 31 27
Route #8: 52 7 82 48 47 36 46 8 45 17 84 5 60 83 18 89
Cost 817
Time 0.535091
Tempo = 0.5496595000004163